Maximize
  0 x0 - 15 x1 + 0 x2 + 19 x3 + 0 x4 - 17 x5 + 25 x6 + 0 x7 + 0 x8 + 0 x9
   + 0 x10 + 0 x11 + 0 x12 - 11 x13 + 31 x14 + 0 x15 + 0 x16 + 0 x17
   + 0 x18 + 0 x19 + 0 x20 + 0 x21 + 0 x22 + 0 x23 - 11 x24 + 0 x25 + 0 x26
   + 0 x27 + 0 x28 - 6 x29 + 0 x30 + 0 x31 + 0 x32 + 0 x33 + 0 x34 + 3 x35
   + 22 x36 + 0 x37 - 29 x38 + 0 x39 + 0 x40 + 9 x41 + 0 x42 - 6 x43
   + 0 x44 + 0 x45 + 14 x46 + 25 x47 + 43 x48 - 36 x49 + [ - 21 x0 ^2
   + 22 x0 * x1 - 86 x0 * x5 - 68 x0 * x10 + 6 x0 * x13 - 96 x0 * x15
   + 86 x0 * x16 + 32 x0 * x22 + 82 x0 * x24 - 70 x0 * x26 - 40 x0 * x28
   - 30 x0 * x33 - 52 x0 * x34 - 94 x0 * x35 - 30 x0 * x38 - 34 x0 * x43
   + 22 x0 * x45 + 72 x0 * x46 - 21 x1 ^2 + 82 x1 * x3 + 88 x1 * x4
   - 82 x1 * x7 + 26 x1 * x9 - 52 x1 * x14 + 6 x1 * x15 + 58 x1 * x16
   - 16 x1 * x18 + 48 x1 * x20 + 4 x1 * x21 + 30 x1 * x26 + 84 x1 * x27
   - 64 x1 * x31 + 96 x1 * x33 - 48 x1 * x34 - 90 x1 * x35 + 80 x1 * x36
   - 84 x1 * x38 + 90 x1 * x39 - 78 x1 * x40 + 40 x1 * x41 - 74 x1 * x44
   - 16 x1 * x47 - 2 x1 * x48 + 28 x1 * x49 - 56 x2 * x3 + 58 x2 * x5
   - 82 x2 * x6 + 66 x2 * x7 - 84 x2 * x8 - 90 x2 * x14 - 68 x2 * x16
   - 70 x2 * x19 - 58 x2 * x22 - 58 x2 * x23 - 80 x2 * x25 - 18 x2 * x27
   - 26 x2 * x30 - 80 x2 * x34 - 92 x2 * x43 - 68 x2 * x46 + 90 x2 * x47
   + 20 x2 * x48 + 86 x3 * x7 - 16 x3 * x8 - 62 x3 * x9 - 36 x3 * x12
   + 30 x3 * x13 + 16 x3 * x14 - 4 x3 * x15 + 24 x3 * x17 - 68 x3 * x18
   - 76 x3 * x31 + 76 x3 * x34 + 42 x3 * x36 - 16 x3 * x38 - 30 x3 * x39
   - 98 x3 * x42 - 98 x3 * x43 - 34 x3 * x44 - 70 x3 * x46 - 98 x3 * x47
   - 52 x3 * x48 + 18 x4 ^2 - 98 x4 * x8 - 52 x4 * x11 - 92 x4 * x15
   - 2 x4 * x20 + 4 x4 * x23 - 58 x4 * x25 + 24 x4 * x31 - 86 x4 * x38
   + 22 x4 * x41 - 8 x4 * x42 + 88 x4 * x48 - 34 x4 * x49 + 45 x5 ^2
   - 12 x5 * x6 - 94 x5 * x9 + 24 x5 * x10 - 92 x5 * x17 - 36 x5 * x21
   + 22 x5 * x22 + 8 x5 * x24 + 30 x5 * x28 - 20 x5 * x32 - 94 x5 * x36
   - 42 x5 * x37 - 82 x5 * x39 + 32 x5 * x40 - 2 x5 * x44 + 52 x5 * x49
   - 10 x6 * x9 + 10 x6 * x10 + 76 x6 * x19 + 44 x6 * x20 - 70 x6 * x21
   - 90 x6 * x24 - 2 x6 * x25 - 74 x6 * x27 + 28 x6 * x28 - 34 x6 * x30
   - 36 x6 * x34 + 40 x6 * x35 - 4 x6 * x37 - 94 x6 * x42 + 54 x6 * x44
   - 2 x6 * x48 + 48 x6 * x49 + 48 x7 ^2 + 22 x7 * x8 - 96 x7 * x11
   - 68 x7 * x13 - 70 x7 * x15 + 86 x7 * x19 + 82 x7 * x21 - 26 x7 * x22
   + 26 x7 * x25 - 12 x7 * x27 - 26 x7 * x34 + 42 x7 * x35 + 56 x7 * x37
   + 36 x7 * x38 + 18 x7 * x45 - 42 x8 * x14 + 46 x8 * x16 - 18 x8 * x17
   + 78 x8 * x20 - 74 x8 * x21 - 16 x8 * x24 - 6 x8 * x25 - 8 x8 * x28
   - 24 x8 * x33 + 68 x8 * x38 - 62 x8 * x39 - 74 x8 * x40 - 80 x8 * x42
   - 18 x9 ^2 - 88 x9 * x11 - 54 x9 * x12 + 22 x9 * x15 + 54 x9 * x17
   + 34 x9 * x22 - 70 x9 * x27 - 70 x9 * x30 + 16 x9 * x33 - 2 x9 * x34
   - 98 x9 * x40 + 34 x9 * x43 + 2 x9 * x47 - 28 x9 * x48 + 18 x9 * x49
   - 34 x10 * x13 + 78 x10 * x15 - 40 x10 * x16 + 6 x10 * x18
   - 98 x10 * x20 - 86 x10 * x23 + 74 x10 * x25 + 96 x10 * x26
   - 32 x10 * x32 + 84 x10 * x34 + 26 x10 * x41 - 74 x10 * x43
   + 48 x10 * x44 + 46 x10 * x45 + 4 x10 * x47 + 32 x11 * x17
   - 12 x11 * x23 - 28 x11 * x25 + 58 x11 * x28 - 54 x11 * x30
   + 4 x11 * x32 + 92 x11 * x36 - 24 x11 * x40 + 80 x11 * x42
   + 24 x11 * x44 - 32 x11 * x45 - 16 x11 * x46 - 20 x11 * x47 - 34 x12 ^2
   + 38 x12 * x19 + 32 x12 * x20 + 58 x12 * x22 + 28 x12 * x23
   + 26 x12 * x24 - 4 x12 * x25 + 22 x12 * x26 - 20 x12 * x27
   - 34 x12 * x28 - 34 x12 * x29 - 16 x12 * x31 - 32 x12 * x32
   + 16 x12 * x37 + 62 x12 * x39 + 78 x12 * x40 + 8 x12 * x42
   + 90 x12 * x43 - 34 x13 ^2 + 42 x13 * x14 + 12 x13 * x17 - 50 x13 * x20
   - 96 x13 * x22 - 16 x13 * x23 - 16 x13 * x28 - 86 x13 * x30
   + 16 x13 * x32 + 52 x13 * x35 + 68 x13 * x36 - 34 x13 * x37
   - 46 x13 * x45 - 80 x13 * x49 - 84 x14 * x18 - 34 x14 * x24
   + 48 x14 * x28 - 62 x14 * x30 + 48 x14 * x31 + 50 x14 * x33
   - 72 x14 * x35 - 94 x14 * x36 - 52 x14 * x37 + 28 x14 * x45
   + 52 x15 * x16 + 12 x15 * x17 - 32 x15 * x19 - 38 x15 * x20
   - 88 x15 * x22 - 52 x15 * x24 + 30 x15 * x26 - 20 x15 * x27
   - 58 x15 * x33 - 72 x15 * x34 - 64 x15 * x35 - 78 x15 * x36
   - 40 x15 * x39 - 52 x15 * x42 - 6 x15 * x47 + 18 x15 * x49
   - 44 x16 * x18 + 72 x16 * x19 - 82 x16 * x21 + 32 x16 * x25
   - 20 x16 * x28 - 48 x16 * x30 - 70 x16 * x35 + 70 x16 * x36
   - 32 x16 * x37 - 78 x16 * x39 - 70 x16 * x42 - 58 x16 * x47
   - 42 x16 * x48 + 88 x16 * x49 + 64 x17 * x20 - 78 x17 * x21
   + 32 x17 * x24 + 8 x17 * x26 + 56 x17 * x29 - 94 x17 * x33
   - 88 x17 * x34 - 60 x17 * x35 + 22 x17 * x41 - 26 x17 * x42
   + 68 x17 * x43 + 26 x17 * x44 + 78 x17 * x45 + 96 x17 * x48
   - 46 x17 * x49 + 13 x18 ^2 + 86 x18 * x23 - 12 x18 * x24 - 42 x18 * x26
   + 50 x18 * x28 - 86 x18 * x29 - 66 x18 * x33 + 76 x18 * x40
   - 42 x18 * x43 + 40 x18 * x44 - 30 x18 * x45 - 66 x18 * x47
   + 62 x18 * x49 + 45 x19 ^2 - 28 x19 * x20 + 28 x19 * x22 + 20 x19 * x24
   + 74 x19 * x27 + 72 x19 * x31 + 62 x19 * x32 - 58 x19 * x34
   - 20 x19 * x35 - 40 x19 * x37 + 88 x19 * x39 - 72 x19 * x48
   + 30 x19 * x49 - 6 x20 * x26 + 54 x20 * x28 - 70 x20 * x30
   + 88 x20 * x32 - 94 x20 * x38 + 52 x20 * x41 + 82 x20 * x43
   + 14 x20 * x46 + 36 x20 * x48 + 60 x20 * x49 - 45 x21 ^2 - 2 x21 * x22
   - 16 x21 * x23 - 94 x21 * x24 + 54 x21 * x25 + 56 x21 * x26
   + 12 x21 * x30 - 42 x21 * x32 - 98 x21 * x33 - 66 x21 * x35
   + 48 x21 * x39 - 68 x21 * x40 - 64 x21 * x44 + 88 x21 * x46
   - 60 x21 * x47 + 84 x21 * x48 - 45 x22 ^2 - 98 x22 * x23 - 26 x22 * x24
   + 98 x22 * x28 - 24 x22 * x33 - 20 x22 * x44 + 46 x22 * x46
   - 74 x22 * x49 - 32 x23 * x27 - 78 x23 * x29 - 86 x23 * x32
   + 82 x23 * x33 + 36 x23 * x36 + 52 x23 * x39 + 30 x23 * x40
   - 80 x23 * x42 + 88 x23 * x45 - 22 x24 * x26 + 12 x24 * x27
   + 88 x24 * x28 - 14 x24 * x30 - 70 x24 * x32 + 16 x24 * x35
   - 50 x24 * x36 - 46 x24 * x40 - 12 x24 * x42 + 52 x24 * x43
   + 26 x24 * x45 - 26 x24 * x48 - 4 x25 ^2 + 74 x25 * x27 - 34 x25 * x33
   + 92 x25 * x39 + 94 x25 * x43 - 72 x25 * x45 - 76 x25 * x46
   + 38 x25 * x48 - 34 x25 * x49 - 36 x26 ^2 - 60 x26 * x28 + 12 x26 * x30
   - 18 x26 * x31 - 60 x26 * x34 + 82 x26 * x38 - 84 x26 * x39
   - 14 x26 * x41 - 98 x26 * x43 + 98 x26 * x45 + 2 x26 * x46
   - 56 x26 * x49 + 27 x27 ^2 - 78 x27 * x29 + 22 x27 * x34 - 60 x27 * x35
   + 76 x27 * x36 + 92 x27 * x40 - 12 x27 * x43 + 44 x27 * x48
   - 4 x27 * x49 + 78 x28 * x31 - 54 x28 * x34 + 30 x28 * x36
   - 92 x28 * x37 - 52 x28 * x40 - 42 x28 * x41 + 12 x28 * x43
   - 32 x28 * x48 - 78 x29 * x31 + 56 x29 * x35 + 36 x29 * x38
   - 20 x29 * x41 - 12 x29 * x43 - 64 x29 * x45 - 52 x29 * x49
   + 30 x30 * x31 + 48 x30 * x37 - 86 x30 * x38 - 16 x30 * x44
   - 32 x30 * x45 + 20 x30 * x46 + 74 x30 * x48 - 24 x30 * x49
   - 32 x31 * x33 - 46 x31 * x36 - 30 x31 * x38 - 22 x31 * x39
   + 44 x31 * x41 + 44 x31 * x42 - 34 x31 * x46 + 50 x31 * x47
   - 56 x31 * x48 + 23 x32 ^2 + 46 x32 * x33 - 18 x32 * x37 - 52 x32 * x38
   - 68 x32 * x39 + 58 x32 * x46 + 28 x32 * x47 + 35 x33 ^2 - 32 x33 * x34
   + 36 x33 * x35 - 92 x33 * x37 + 90 x33 * x38 - 60 x33 * x41
   + 82 x33 * x44 - 64 x33 * x45 + 30 x33 * x46 + 26 x33 * x49 + 10 x34 ^2
   - 88 x34 * x43 + 74 x34 * x47 - 36 x35 ^2 + 18 x35 * x42 + 12 x35 * x43
   - 96 x35 * x47 + 76 x35 * x48 - 4 x36 * x38 - 12 x36 * x39
   + 20 x36 * x40 + 20 x36 * x42 + 84 x36 * x43 - 62 x36 * x47
   - 44 x37 * x40 + 82 x37 * x41 + 18 x37 * x42 + 78 x37 * x44
   - 60 x37 * x45 + 54 x37 * x46 + 64 x37 * x47 + 56 x37 * x48
   + 68 x37 * x49 - 38 x38 ^2 - 14 x38 * x40 - 56 x38 * x42 + 38 x38 * x48
   - 76 x38 * x49 - 40 x39 ^2 - 54 x39 * x41 - 70 x39 * x42 + 14 x39 * x43
   - 90 x39 * x49 - 4 x40 * x41 + 56 x40 * x42 - 24 x40 * x45
   - 46 x40 * x47 + 58 x41 * x43 + 78 x41 * x47 + 24 x41 * x49
   + 18 x42 * x48 - 34 x43 ^2 - 40 x43 * x45 - 64 x43 * x48 + 41 x44 ^2
   - 68 x44 * x47 + 70 x45 * x46 - 36 x46 * x47 + 3 x47 ^2 - 94 x47 * x49
   - 5 x48 ^2 ] / 2 
Subject To
Bounds
 x0 <= 1
 x1 <= 1
 x2 <= 1
 x3 <= 1
 x4 <= 1
 x5 <= 1
 x6 <= 1
 x7 <= 1
 x8 <= 1
 x9 <= 1
 x10 <= 1
 x11 <= 1
 x12 <= 1
 x13 <= 1
 x14 <= 1
 x15 <= 1
 x16 <= 1
 x17 <= 1
 x18 <= 1
 x19 <= 1
 x20 <= 1
 x21 <= 1
 x22 <= 1
 x23 <= 1
 x24 <= 1
 x25 <= 1
 x26 <= 1
 x27 <= 1
 x28 <= 1
 x29 <= 1
 x30 <= 1
 x31 <= 1
 x32 <= 1
 x33 <= 1
 x34 <= 1
 x35 <= 1
 x36 <= 1
 x37 <= 1
 x38 <= 1
 x39 <= 1
 x40 <= 1
 x41 <= 1
 x42 <= 1
 x43 <= 1
 x44 <= 1
 x45 <= 1
 x46 <= 1
 x47 <= 1
 x48 <= 1
 x49 <= 1
End
